Assets/LKHProbs~/skull.53.tsp
NAME : GeneratedProblem
COMMENT : SVGCrosshatch
TYPE : TSP
DIMENSION : 48
EDGE_WEIGHT_TYPE : EUC_2D
NODE_COORD_SECTION
1 5800 7300
2 5800 7400
3 5900 7100
4 5900 7200
5 5900 7300
6 5900 7400
7 6500 6300
8 6500 6400
9 6500 6500
10 6500 6600
11 6500 6700
12 6500 6800
13 6500 6900
14 6500 7000
15 6500 7100
16 6500 7200
17 6500 7300
18 6500 7400
19 6600 6500
20 6600 6600
21 6600 6700
22 6600 6800
23 6600 6900
24 6600 7000
25 6600 7100
26 6600 7200
27 6600 7300
28 6600 7400
29 6700 6700
30 6700 6800
31 6700 6900
32 6700 7000
33 6700 7100
34 6700 7200
35 6700 7300
36 6700 7400
37 6800 6900
38 6800 7000
39 6800 7100
40 6800 7200
41 6800 7300
42 6800 7400
43 6900 7100
44 6900 7200
45 6900 7300
46 6900 7400
47 7000 7300
48 7000 7400
EOF
