Assets/LKHProbs~/skull.53.out.txt
NAME : GeneratedProblem.5924.tour
COMMENT : Length = 5924
COMMENT : Found by LKH [Keld Helsgaun] Sun Nov 25 13:18:02 2018
TYPE : TOUR
DIMENSION : 48
TOUR_SECTION
1
2
6
18
28
36
35
41
42
46
48
47
45
44
43
39
40
34
33
32
38
37
31
30
29
21
20
19
7
8
9
10
11
12
22
23
13
14
24
25
26
27
17
16
15
3
4
5
-1
EOF
